m = 5;
p = 2;
n = 2;

S_set = [{1}, {1}];
S = [1, 1];

D_set = [{5}, {5}];
D = [5, 5];

x = [

     [[0 0] [0 0] [1 1] [0 0] [0 0]] 
     [[0 0] [0 0] [0 0] [0 0] [0 1]]
     [[0 0] [0 1] [0 0] [1 0] [0 0]]
     [[0 0] [0 0] [0 0] [0 0] [1 0]]
     [[0 0] [0 0] [0 0] [0 0] [0 0]]
     ];

v = [
     [[0 0] [0 0] [4 4] [0 0] [0 0]]
     [[0 0] [0 0] [0 0] [0 0] [0 2]]
     [[0 0] [0 3] [0 0] [3 0] [0 0]]
     [[0 0] [0 0] [0 0] [0 0] [2 0]]
     [[0 0] [0 0] [0 0] [0 0] [0 0]]
     ];
     
costs = [
	[0, 2, 2, 0, 0],
	[2, 0, 2, 0, 2],
	[2, 2, 0, 2, 0],
	[0, 0, 2, 0, 1],
	[0, 2, 0, 1, 0],
];

cost_of_purchasing = [
	[2, 3],
	[2, 3],
	[2, 3],
	[2, 3],
	[2, 3]
];
demands = [
	[1, 1],
	[1, 1]
];

K = [
	{1, 2},
	{1, 2}
];

O = [
	[1, 2],
	[2, 1]
];

